43
pyrazolopyrimidine ethyl ester+H+
C     -0.69253924     0.95318263    -2.43450975
C     -1.54490553     0.52982747    -1.28333008
N     -2.86266429     0.58475125    -1.34081024
N     -3.35670337     0.11737955    -0.13577647
C     -4.76273401     0.07855542     0.13065529
C     -5.54713073     1.18513066    -0.20078786
C     -6.91239896     1.14683934     0.07772842
C     -7.47990325     0.02467048     0.68885286
C     -6.68496416    -1.07801329     1.00656316
C     -5.31875860    -1.06271758     0.71826220
C     -2.34249094    -0.21262449     0.67667014
N     -2.34631027    -0.66238531     1.96844425
C     -1.14425490    -0.88861867     2.56108201
N      0.01272697    -0.71167995     1.97804204
C      0.05607422    -0.25630538     0.69909592
O      1.20671409    -0.06558158     0.11464788
C      2.45395641    -0.34528695     0.84477287
C      3.59133870    -0.01497591    -0.10529363
C      4.91984463    -0.28886761     0.58622967
O      5.00640014    -0.72189249     1.71747769
O      5.94878497     0.00766091    -0.21057644
C      7.27989398    -0.21454223     0.34134306
C      8.28484948     0.19192501    -0.71786173
C     -1.13554240     0.01880305    -0.00292893
H     -1.32498047     1.32362146    -3.24365078
H      0.00459036     1.74322376    -2.13544331
H     -0.09647964     0.11320408    -2.80780028
H     -5.09111552     2.04882745    -0.67194275
H     -7.53332712     1.99923029    -0.17940292
H     -8.54337297     0.00555408     0.90551016
H     -7.12825983    -1.96146886     1.45530692
H     -4.71200699    -1.94789933     0.89269166
H     -3.21828299    -0.80072453     2.47304709
H     -1.17610984    -1.24099643     3.58796939
H      2.45146018    -1.39458961     1.14194462
H      2.47133717     0.26926232     1.74563891
H      3.55435143     1.03502893    -0.41649003
H      3.52891654    -0.61691960    -1.01900375
H      7.36522083    -1.27049413     0.61397252
H      7.37454359     0.37837767     1.25569478
H      8.17412239     1.24850655    -0.98093155
H      8.16459947    -0.40750774    -1.62562349
H      9.29962959     0.03761960    -0.33649668
