37
pyrazolopyrimidine propanoic acid+H+
C      1.02193403     2.71803895    -1.06476058
C      0.12889973     1.65472997    -0.51773249
N     -1.15200113     1.58536006    -0.82747698
N     -1.68217432     0.47884268    -0.18261834
C     -3.05207557     0.10168367    -0.35036281
C     -3.61057004     0.12224710    -1.63007598
C     -4.93985171    -0.26645719    -1.78778679
C     -5.69328642    -0.68030331    -0.68511696
C     -5.12454115    -0.68723503     0.58974385
C     -3.79948364    -0.28414881     0.76751658
C     -0.72219165    -0.14897758     0.51008973
N     -0.75156420    -1.31830539     1.21956939
C      0.41541281    -1.76030274     1.75726195
N      1.55902177    -1.13175149     1.66309716
C      1.62037220     0.04133349     0.98033061
O      2.74485211     0.70323158     0.91002084
C      4.00474661     0.09860960     1.33590421
C      4.50433814    -0.93377807     0.31993085
C      4.43036435    -0.41654950    -1.10736078
O      3.39030336    -0.23981053    -1.70774410
O      5.64511563    -0.16447749    -1.62162965
C      0.47567058     0.56666419     0.35575709
H      1.86327721     2.26136923    -1.59738446
H      1.43395434     3.33633079    -0.25966156
H      0.46112316     3.35667399    -1.74994931
H     -3.01152366     0.44272877    -2.47518664
H     -5.38617721    -0.25061157    -2.77713087
H     -6.72656754    -0.98500387    -0.81846107
H     -5.71576445    -0.98101454     1.45147423
H     -3.37773159    -0.21361247     1.76721019
H     -1.60915776    -1.85798937     1.30507887
H      0.36525178    -2.70005766     2.29920012
H      3.87267129    -0.35226912     2.32039373
H      4.67367643     0.95651793     1.40505074
H      5.53192358    -1.19773962     0.58479505
H      3.88769284    -1.83516914     0.37984760
H      5.51743529     0.15878688    -2.53540252
