38
pyrazolopyrimidine propanamide+H+
C      0.93904181     1.47044195     2.35260522
C     -0.02336058     1.05203267     1.29193079
N     -1.30433501     0.86443648     1.54344062
N     -1.91986210     0.44783307     0.38123456
C     -3.32056378     0.14558911     0.39911952
C     -4.09409857     0.31305721    -0.75351140
C     -5.45358458     0.00747418    -0.70149483
C     -6.03331787    -0.44493522     0.48537784
C     -5.24841178    -0.59478499     1.63128717
C     -3.88671444    -0.30297704     1.59648291
C     -1.02480486     0.35506574    -0.62194683
N     -1.23473103    -0.07901399    -1.89126741
C     -0.17664541    -0.10784616    -2.63422461
N      1.08695814     0.27822034    -2.20541760
C      1.32840315     0.72357023    -0.93301033
O      2.50925416     1.15295108    -0.55475604
C      3.75395663     0.76871512    -1.20347555
C      4.07225038    -0.72739463    -1.07877209
C      3.82983582    -1.25693448     0.34103456
O      2.69170839    -1.29101162     0.79491787
N      4.92704086    -1.64798184     1.03355639
C      0.22914325     0.75706058    -0.08589626
H      0.41399988     1.58038060     3.30356338
H      1.41790272     2.42286234     2.09967323
H      1.72581222     0.71523868     2.45605521
H     -3.64903740     0.67634687    -1.67143771
H     -6.06127429     0.13607949    -1.59187713
H     -7.09375760    -0.67531660     0.51863757
H     -5.69452444    -0.94329452     2.55759818
H     -3.26680114    -0.41282849     2.47813939
H     -0.23164022    -0.44781116    -3.66351301
H      1.84035881     0.25728040    -2.88283757
H      4.48893739     1.37441771    -0.67298681
H      3.74526488     1.09874391    -2.24965983
H      5.10610518    -0.85971471    -1.41774589
H      3.43781566    -1.32183419    -1.74509814
H      4.79380679    -2.04799017     1.95401571
H      5.84757979    -1.70292330     0.62330214
