36
pyrazolopyrimidine propanoic acid
C     -0.81507347    -0.67153100    -2.60310172
C      0.13054273    -0.32933542    -1.49599091
N      1.43295219    -0.28394294    -1.69927914
N      2.03741451     0.05379318    -0.50840666
C      3.45685194     0.16861614    -0.45992422
C      4.19295267    -0.06599277    -1.62960972
C      5.58152648     0.04093232    -1.60184300
C      6.24744368     0.37908686    -0.42188856
C      5.50520520     0.61064155     0.73650554
C      4.11372876     0.50883023     0.73053981
C      1.09285500     0.22619923     0.47178484
N      1.27227496     0.55793661     1.76491500
C      0.13445105     0.64079377     2.44222089
N     -1.12398758     0.43746311     1.99515121
C     -1.27244083     0.11168081     0.71707029
O     -2.49366707    -0.10514248     0.20845166
C     -3.62111998     0.02668860     1.09885900
C     -4.85224692    -0.28408747     0.26091282
C     -6.11914020    -0.18239473     1.07981337
O     -6.17818738     0.11192469     2.25343019
O     -7.21437509    -0.46479306     0.33601470
C     -0.15814119    -0.01462662    -0.13289696
H     -1.52728121     0.14287007    -2.77885423
H     -0.25556082    -0.85693291    -3.52326839
H     -1.40158732    -1.56456906    -2.35842418
H      3.67035653    -0.32778704    -2.54049320
H      6.14416253    -0.14269317    -2.51325141
H      7.33058570     0.46093098    -0.40630982
H      6.00820082     0.87475954     1.66288191
H      3.54090901     0.68885387     1.63052270
H      0.21775385     0.90613561     3.49378108
H     -3.65312180     1.03865209     1.50996442
H     -3.51459467    -0.66540390     1.93770467
H     -4.78802855    -1.29209664    -0.16624059
H     -4.92685317     0.40207077    -0.59135574
H     -7.98020893    -0.37643822     0.93501301
