37
pyrazolopyrimidine propanamide
C     -0.65686236    -1.53419502     2.11437373
C      0.30355362    -0.81593683     1.22064925
N      1.60034956    -0.82800880     1.46131074
N      2.22082434    -0.08900946     0.47816583
C      3.63794613     0.05330901     0.50926497
C      4.31095688     0.79625894    -0.47033517
C      5.69989795     0.91122248    -0.40459796
C      6.42410623     0.29903468     0.61872114
C      5.74241890    -0.43845009     1.58904053
C      4.35608959    -0.56577402     1.54187379
C      1.29197015     0.40214805    -0.40516207
N      1.48976184     1.16586194    -1.49688472
C      0.36275146     1.46437680    -2.13111336
N     -0.89943404     1.10241645    -1.81547578
C     -1.06670670     0.34955995    -0.73466305
O     -2.29012825    -0.04741302    -0.36256325
C     -3.41032009     0.37095056    -1.17503231
C     -4.64704114    -0.22691532    -0.52146294
C     -5.91129131     0.14531730    -1.29437885
O     -5.88974898     0.84144154    -2.29920548
N     -7.07273994    -0.34794800    -0.76795913
C      0.03505244    -0.05010978     0.04540680
H     -1.21901046    -2.29359894     1.55869357
H     -0.11250617    -2.02104955     2.92733561
H     -1.38976948    -0.84088427     2.54287219
H      3.75205078     1.27209508    -1.26518185
H      6.21538273     1.48872802    -1.16731601
H      7.50542694     0.39490217     0.66042042
H      6.29076724    -0.92185702     2.39319227
H      3.82126376    -1.13593297     2.29036366
H      0.46088998     2.08052572    -3.02213930
H     -3.27889564     0.01453996    -2.19892588
H     -3.45602669     1.46151170    -1.20987350
H     -4.73092190     0.12584625     0.51464516
H     -4.55153939    -1.31961814    -0.47158539
H     -7.08918949    -0.98225865     0.01612114
H     -7.93329344    -0.17281388    -1.26744110
