42
pyrazolopyrimidine ethyl ester
C      0.91618922     1.90459222    -1.86795830
C      1.68228128     0.96433426    -0.99275190
N      2.99967315     1.00018990    -0.93892070
N      3.41523378     0.02698996    -0.05679305
C      4.80961364    -0.14147504     0.18203315
C      5.71535640     0.68675728    -0.49538906
C      7.08252539     0.53720882    -0.27440635
C      7.56028147    -0.42834582     0.61415579
C      6.65024474    -1.24743291     1.28301167
C      5.27686055    -1.11430680     1.07633179
C      2.33274288    -0.64008238     0.45959012
N      2.31269193    -1.65233293     1.34811300
C      1.08498195    -2.06662034     1.63414759
N     -0.08984362    -1.60489695     1.15363585
C     -0.04165581    -0.60734048     0.27891452
O     -1.16857153    -0.10070637    -0.23886995
C     -2.42196234    -0.67465566     0.19048347
C     -3.50665552     0.07653004    -0.56687089
C     -4.88916670    -0.42474035    -0.19835872
O     -5.11454553    -1.29263975     0.61922145
O     -5.83670790     0.22323169    -0.90597236
C     -7.21311981    -0.15356505    -0.65024358
C     -7.78827855     0.61942351     0.52713465
C      1.18952417    -0.05815443    -0.12555649
H      0.31397108     1.35732089    -2.60225710
H      0.22488867     2.51707192    -1.27777649
H      1.60832346     2.56328923    -2.39828903
H      5.33825109     1.43312444    -1.18248388
H      7.77733827     1.18366446    -0.80384993
H      8.62767748    -0.54025694     0.78241073
H      7.00557798    -2.00375917     1.97775962
H      4.57366420    -1.75118988     1.59635609
H      1.00678229    -2.88389098     2.34768863
H     -2.43469308    -1.74427595    -0.03208709
H     -2.52826144    -0.56284089     1.27224795
H     -3.45279785     1.15114009    -0.35438974
H     -3.36691600    -0.02640649    -1.64941711
H     -7.25559528    -1.23137951    -0.47611987
H     -7.73373754     0.08556601    -1.58065070
H     -8.84985983     0.37499783     0.64851153
H     -7.26858866     0.35563292     1.45271319
H     -7.70059694     1.69883548     0.36535322
