35
isorhamnetin
O      1.48685120     3.24610244     0.93525985
C      1.46730063     2.06960969     0.53483685
C      0.16214444     1.39605441     0.52266230
O     -0.84352068     2.18961111     0.96364009
C     -0.00286324     0.10733899     0.10654992
C     -1.22730139    -0.69184214     0.03669061
C     -1.18775382    -2.01296731    -0.44192328
C     -2.34550130    -2.78522891    -0.51232520
C     -3.56647376    -2.25640628    -0.10655704
O     -4.69951498    -3.00364531    -0.17133798
C     -3.61763028    -0.93102023     0.37517159
O     -4.88061886    -0.53164741     0.74149549
C     -5.04561504     0.78365447     1.25288318
C     -2.47077276    -0.15610958     0.44798163
O      1.10835974    -0.59097107    -0.31957237
C      2.35039844    -0.04934199    -0.34164872
C      3.36264827    -0.89679391    -0.80225773
C      4.66286037    -0.40625655    -0.85068454
O      5.71268715    -1.15507190    -1.28298284
C      4.95510861     0.90678335    -0.44831434
C      3.94030072     1.73831127     0.00715658
O      4.18946116     3.00815353     0.40207276
C      2.59416085     1.27608305     0.07339814
H     -0.36217159     3.03183021     1.17155592
H     -0.24552364    -2.44001152    -0.76144898
H     -2.31702191    -3.80541771    -0.88172122
H     -5.42489051    -2.44303610     0.15803334
H     -4.45575314     0.93074470     2.16611645
H     -4.75524095     1.53717929     0.51029698
H     -6.10752085     0.88715973     1.48274548
H     -2.51508481     0.85779572     0.81748224
H      3.11393496    -1.90812174    -1.10816457
H      5.39472216    -2.03684190    -1.53387157
H      5.98329462     1.25323132    -0.50107863
H      5.13973935     3.18218678     0.30393890
