36
isorhamnetin+H+
O      1.57701483     1.87870686    -2.56142134
C      1.47067236     1.10396148    -1.47675954
C      0.15727628     0.79733589    -1.09660782
O     -0.87437194     1.28880915    -1.82722727
C     -0.08066575    -0.01130952     0.02783729
C     -1.33756905    -0.44307331     0.58135781
C     -1.33592906    -1.27801754     1.72717784
C     -2.51966232    -1.71747621     2.29169631
C     -3.74338283    -1.33690695     1.73149263
O     -4.88895026    -1.76055599     2.27540164
C     -3.76536822    -0.49969970     0.58368346
O     -5.02737517    -0.21767439     0.15848350
C     -5.19844345     0.61864919    -0.98574415
C     -2.58732628    -0.05839960     0.01499068
O      1.00098255    -0.46843293     0.71149688
C      2.28993394    -0.20119049     0.38602741
C      3.27674481    -0.74816910     1.19239996
C      4.61005950    -0.48301209     0.87237943
O      5.54356867    -1.02595412     1.67199087
C      4.94697748     0.32006407    -0.24268148
C      3.94563795     0.85284026    -1.02965279
O      4.18568646     1.63728841    -2.12243250
C      2.57642419     0.60738491    -0.73769424
H      2.52084275     2.05032405    -2.76739880
H     -0.50670049     1.81743939    -2.55910562
H     -0.39716064    -1.58107143     2.17199007
H     -2.52510482    -2.35687024     3.16763459
H     -5.62874058    -1.39531270     1.75233771
H     -4.76871335     1.61163905    -0.80975373
H     -6.27491242     0.70514295    -1.13314780
H     -4.73957823     0.16463411    -1.87173539
H     -2.61303636     0.57675783    -0.85619099
H      3.02680765    -1.36383829     2.04734274
H      6.44030252    -0.79317578     1.38015364
H      5.99056031     0.51598526    -0.47751727
H      5.13628624     1.77042586    -2.27237929
