31
kaempferol
O     -2.23813963    -2.10302839    -1.89731030
C     -1.67272008    -1.25130143    -1.15761246
C     -0.22412961    -1.27708994    -1.05881482
O      0.37104339    -2.24697094    -1.79796580
C      0.45831958    -0.38342294    -0.27576971
C      1.90233259    -0.26998783    -0.06474641
C      2.81990954    -1.12631389    -0.70624460
C      4.18722281    -0.99642178    -0.48895832
C      4.67737279    -0.00982022     0.37390276
O      6.00605739     0.16211144     0.62321962
C      3.78033761     0.84983961     1.02013201
C      2.41717478     0.71870407     0.80171838
O     -0.25198545     0.55949387     0.43341521
C     -1.60768320     0.64355324     0.39025340
C     -2.21220305     1.64053825     1.15213858
C     -3.60784294     1.73695450     1.11509769
O     -4.27628978     2.68140852     1.82861111
C     -4.39458255     0.86837890     0.34259604
C     -3.77925643    -0.12168300    -0.41262689
O     -4.52225081    -0.95666863    -1.15422874
C     -2.35760967    -0.24740321    -0.39728917
H     -0.38868199    -2.70183444    -2.23038292
H      2.46136981    -1.89512706    -1.37690444
H      4.87802582    -1.66833089    -0.99520001
H      6.51245083    -0.49265141     0.11687668
H      4.17031173     1.61161137     1.68754366
H      1.73504031     1.39062471     1.30819679
H     -1.60407927     2.31249847     1.74951814
H     -3.63963471     3.22202691     2.32234854
H     -5.47296417     0.97202824     0.33785393
H     -3.89846837    -1.58040071    -1.61011342
