32
kaempferol+H+
O     -2.05482301    -2.84129732     0.83880727
C     -1.50473088    -1.69469733     0.48625839
C     -0.09983533    -1.55390331     0.59603073
O      0.53864119    -2.67722935     1.05570208
C      0.52456442    -0.36754254     0.25456383
C      1.94543954    -0.07681223     0.30598368
C      2.91701193    -1.09498004     0.14000260
C      4.26767591    -0.79942370     0.17985398
C      4.69166976     0.52405697     0.39446487
O      6.01854849     0.74002476     0.43379618
C      3.73945529     1.54765234     0.54900665
C      2.38819057     1.25054704     0.49734889
O     -0.24508519     0.67842047    -0.12771147
C     -1.59965140     0.60268930    -0.25836497
C     -2.23719867     1.75704566    -0.68481671
C     -3.62677155     1.71572686    -0.84220379
O     -4.34675151     2.77092226    -1.25295884
C     -4.35522658     0.53955002    -0.57550049
C     -3.71140751    -0.60788946    -0.14941408
O     -4.35917803    -1.75395306     0.11659575
C     -2.28648670    -0.60802940     0.02569322
H     -1.34289995    -3.44047053     1.14900063
H      1.29636646    -2.44021898     1.61932700
H      2.61226399    -2.11228225    -0.08178036
H      5.01623673    -1.57039484     0.03291716
H      6.21304895     1.68141701     0.57657691
H      4.06384905     2.57249607     0.71169437
H      1.66299902     2.04729078     0.61977520
H     -1.65714549     2.64953052    -0.89259306
H     -3.77764386     3.54082585    -1.41986960
H     -5.43160023     0.55787731    -0.71559461
H     -5.31300182    -1.64327228    -0.03691159
