33
quercetin+H+
O     -2.49397060    -2.60277699    -0.13706405
C     -1.82640811    -1.46513727    -0.08596255
C     -0.41269979    -1.51156426    -0.00317646
O      0.09553991    -2.78127292     0.02596193
C      0.33262301    -0.34721630     0.03269006
C      1.78054773    -0.23941343     0.10937321
C      2.42931200     0.86961887    -0.46618172
C      3.81557525     0.97198570    -0.41414600
C      4.56913415    -0.01732841     0.21739153
O      5.92082885    -0.01796140     0.32977406
C      3.93062153    -1.12770793     0.81797864
O      4.64843856    -2.07586605     1.45730402
C      2.54869632    -1.23572540     0.75927715
O     -0.31043018     0.83798102    -0.06632306
C     -1.66684748     0.94938818    -0.14108536
C     -2.17045314     2.23491653    -0.21458381
C     -3.55835088     2.39093061    -0.28064569
O     -4.01981965     3.64942243    -0.34784319
C     -4.41722588     1.27259284    -0.27301206
C     -3.90379899    -0.01310216    -0.20073895
O     -4.67863342    -1.11027527    -0.19012688
C     -2.48662805    -0.21415721    -0.13225076
H     -1.84826825    -3.34061858    -0.11938794
H      0.99971084    -2.80448513    -0.33491753
H      1.85260788     1.63915773    -0.96518316
H      4.31553859     1.82265017    -0.87036619
H      6.31152567     0.77535732    -0.07118605
H      5.59105735    -1.83302221     1.42716734
H      2.08799201    -2.05660557     1.29799277
H     -1.51464300     3.09622105    -0.21285494
H     -4.99061845     3.66822360    -0.38482737
H     -5.49398095     1.41834159    -0.32272751
H     -5.61763551    -0.86324829    -0.23733767
