32
quercetin
O      2.14461431    -3.09163941    -0.65145807
C      1.65517292    -1.94112482    -0.48274325
C      0.21091284    -1.80942233    -0.40913098
O     -0.46567079    -2.97775481    -0.53406732
C     -0.39044378    -0.59132885    -0.22651110
C     -1.81729170    -0.28342024    -0.13004276
C     -2.80666144    -1.27949211    -0.24532487
C     -4.15768374    -0.95471201    -0.15017330
C     -4.55827326     0.36224821     0.06139771
O     -5.87650701     0.67587062     0.15388657
C     -3.57572520     1.36338645     0.17790589
O     -4.07021751     2.63200109     0.38607272
C     -2.23080997     1.05094716     0.08430079
O      0.40046801     0.53196382    -0.11021599
C      1.75777817     0.48420662    -0.16966808
C      2.44828915     1.68703545    -0.03968641
C      3.84616086     1.64983680    -0.10037080
O      4.59556308     2.77825036     0.01666360
C      4.55198577     0.45113550    -0.28499360
C      3.85151655    -0.74163870    -0.41297432
O      4.51696451    -1.89231349    -0.58964610
C      2.42537362    -0.73839607    -0.35610128
H      0.24956654    -3.64574334    -0.64821084
H     -2.51883096    -2.30806286    -0.40987574
H     -4.92108868    -1.72091066    -0.23924177
H     -5.94075262     1.63588006     0.30035933
H     -3.33745892     3.26249226     0.45202942
H     -1.48979625     1.83824865     0.17685939
H      1.90354378     2.61505701     0.10287112
H      4.01025272     3.54204994     0.14002587
H      5.63449541     0.45930448    -0.32698609
H      3.84047467    -2.61637895    -0.65707044
